Mg O  Mg O  Co O  Ni O  Ni O  Ni O  Mg O  Zn O  Mg O  Zn O  Cu O  Mg O  Mg O  Mg O  Ni O  Ni O  Zn O  Zn O  Mg O  Zn O  Ni O  Zn O  Cu O  Ni O  Cu O  Zn O  Co O  Mg O  Ni O  Cu O  Co O  Co O 
 1.0000000000000000
     8.4000000000000004    0.0000000000000000    0.0000000000000000
     0.0000000000000000    8.4000000000000004    0.0000000000000000
     0.0000000000000000    0.0000000000000000    8.4000000000000004
 Mg  O   Mg  O   Co  O   Ni  O   Ni  O   Ni  O   Mg  O   Zn  O   Mg  O   Zn  O   Cu  O   Mg  O   Mg  O   Mg  O   Ni  O   Ni  O   Zn  O   Zn  O   Mg  O   Zn  O   Ni  O   Zn  O   Cu  O   Ni  O   Cu  O   Zn  O   Co  O   Mg  O   Ni  O   Cu  O   Co  O   Co  O  
   1   1   1   1   1   1   1   1   1   1   1   1   1   1   1   1   1   1   1   1   1   1   1   1   1   1   1   1   1   1   1   1   1   1   1   1   1   1   1   1   1   1   1   1   1   1   1   1   1   1   1   1   1   1   1   1   1   1   1   1   1   1   1   1
Cartesian
  0.0000000000000000  0.0000000000000000  0.0000000000000000
  2.1000000000000001  0.0000000000000000  0.0000000000000000
  0.0000000000000000  2.1000000000000001  2.1000000000000001
  2.1000000000000001  2.1000000000000001  2.1000000000000001
  2.1000000000000001  0.0000000000000000  2.1000000000000001
  0.0000000000000000  0.0000000000000000  2.1000000000000001
  2.1000000000000001  2.1000000000000001  0.0000000000000000
  0.0000000000000000  2.1000000000000001  0.0000000000000000
  0.0000000000000000  0.0000000000000000  4.2000000000000002
  2.1000000000000001  0.0000000000000000  4.2000000000000002
  0.0000000000000000  2.1000000000000001  6.3000000000000007
  2.1000000000000001  2.1000000000000001  6.3000000000000007
  2.1000000000000001  0.0000000000000000  6.3000000000000007
  0.0000000000000000  0.0000000000000000  6.3000000000000007
  2.1000000000000001  2.1000000000000001  4.2000000000000002
  0.0000000000000000  2.1000000000000001  4.2000000000000002
  0.0000000000000000  4.2000000000000002  0.0000000000000000
  2.1000000000000001  4.2000000000000002  0.0000000000000000
  0.0000000000000000  6.3000000000000007  2.1000000000000001
  2.1000000000000001  6.3000000000000007  2.1000000000000001
  2.1000000000000001  4.2000000000000002  2.1000000000000001
  0.0000000000000000  4.2000000000000002  2.1000000000000001
  2.1000000000000001  6.3000000000000007  0.0000000000000000
  0.0000000000000000  6.3000000000000007  0.0000000000000000
  0.0000000000000000  4.2000000000000002  4.2000000000000002
  2.1000000000000001  4.2000000000000002  4.2000000000000002
  0.0000000000000000  6.3000000000000007  6.3000000000000007
  2.1000000000000001  6.3000000000000007  6.3000000000000007
  2.1000000000000001  4.2000000000000002  6.3000000000000007
  0.0000000000000000  4.2000000000000002  6.3000000000000007
  2.1000000000000001  6.3000000000000007  4.2000000000000002
  0.0000000000000000  6.3000000000000007  4.2000000000000002
  4.2000000000000002  0.0000000000000000  0.0000000000000000
  6.3000000000000007  0.0000000000000000  0.0000000000000000
  4.2000000000000002  2.1000000000000001  2.1000000000000001
  6.3000000000000007  2.1000000000000001  2.1000000000000001
  6.3000000000000007  0.0000000000000000  2.1000000000000001
  4.2000000000000002  0.0000000000000000  2.1000000000000001
  6.3000000000000007  2.1000000000000001  0.0000000000000000
  4.2000000000000002  2.1000000000000001  0.0000000000000000
  4.2000000000000002  0.0000000000000000  4.2000000000000002
  6.3000000000000007  0.0000000000000000  4.2000000000000002
  4.2000000000000002  2.1000000000000001  6.3000000000000007
  6.3000000000000007  2.1000000000000001  6.3000000000000007
  6.3000000000000007  0.0000000000000000  6.3000000000000007
  4.2000000000000002  0.0000000000000000  6.3000000000000007
  6.3000000000000007  2.1000000000000001  4.2000000000000002
  4.2000000000000002  2.1000000000000001  4.2000000000000002
  4.2000000000000002  4.2000000000000002  0.0000000000000000
  6.3000000000000007  4.2000000000000002  0.0000000000000000
  4.2000000000000002  6.3000000000000007  2.1000000000000001
  6.3000000000000007  6.3000000000000007  2.1000000000000001
  6.3000000000000007  4.2000000000000002  2.1000000000000001
  4.2000000000000002  4.2000000000000002  2.1000000000000001
  6.3000000000000007  6.3000000000000007  0.0000000000000000
  4.2000000000000002  6.3000000000000007  0.0000000000000000
  4.2000000000000002  4.2000000000000002  4.2000000000000002
  6.3000000000000007  4.2000000000000002  4.2000000000000002
  4.2000000000000002  6.3000000000000007  6.3000000000000007
  6.3000000000000007  6.3000000000000007  6.3000000000000007
  6.3000000000000007  4.2000000000000002  6.3000000000000007
  4.2000000000000002  4.2000000000000002  6.3000000000000007
  6.3000000000000007  6.3000000000000007  4.2000000000000002
  4.2000000000000002  6.3000000000000007  4.2000000000000002
